\ File written by Highs .lp filereader
min
 obj: +1 x0 +1 x1 +1 x2 +1 x3 +1 x4 +1 x5 +1 x6 +1 x7 +1 x8 +0 x9 +0 x10 +0 x11 
st
 con0lo: +1 x0 +1 x1 +1 x2 +1 x3 +1 x6 >= +1
 con1lo: +1 x0 +1 x1 +1 x2 +1 x4 +1 x7 >= +1
 con2lo: +1 x0 +1 x1 +1 x2 +1 x5 +1 x8 >= +1
 con3lo: +1 x0 +1 x3 +1 x4 +1 x5 +1 x6 >= +1
 con4lo: +1 x1 +1 x3 +1 x4 +1 x5 +1 x7 >= +1
 con5lo: +1 x2 +1 x3 +1 x4 +1 x5 +1 x8 >= +1
 con6lo: +1 x0 +1 x3 +1 x6 +1 x7 +1 x8 >= +1
 con7lo: +1 x1 +1 x4 +1 x6 +1 x7 +1 x8 >= +1
 con8lo: +1 x2 +1 x5 +1 x6 +1 x7 +1 x8 >= +1
 con9lo: +4 x0 +4 x1 +4 x2 +4 x3 +4 x4 +4 x5 +4 x6 +4 x7 +4 x8 >= +8
 con10lo: +1 x0 +2 x1 +2 x2 +2 x3 +2 x4 +2 x5 +2 x6 +2 x7 +2 x8 >= +4
 con11lo: +3 x0 +4 x1 +4 x2 +4 x3 +4 x4 +4 x5 +4 x6 +4 x7 +4 x8 >= +8
 con12lo: +2 x0 +3 x1 +3 x2 +3 x3 +3 x4 +3 x5 +3 x6 +3 x7 +3 x8 >= +6
 con13lo: +4 x0 +4 x1 +3 x2 +4 x3 +4 x4 +4 x5 +4 x6 +4 x7 +4 x8 >= +8
 con14lo: +3 x0 +4 x1 +5 x2 +4 x3 +4 x4 +5 x5 +4 x6 +4 x7 +5 x8 >= +9
 con15: +1 x3 -1 x6 -1 x9 = +0
 con16: +1 x4 -1 x7 -1 x10 = +0
 con17: +1 x5 -1 x8 -1 x11 = +0
bounds
 +0 <= x0 <= +1
 +0 <= x1 <= +1
 +0 <= x2 <= +1
 +0 <= x3 <= +1
 +0 <= x4 <= +1
 +0 <= x5 <= +1
 +0 <= x6 <= +1
 +0 <= x7 <= +1
 +0 <= x8 <= +1
 +0 <= x9 <= +0
 +0 <= x10 <= +0
 +0 <= x11 <= +0
end
